DIMENSION :17
NODE_COORD_SECTION
1 -47.082431575333715 72.15738618873803
2 -87.95382184720475 42.65946147936506
3 52.169243146598575 84.28671640840352
4 -40.61172656270615 87.4245382362023
5 -20.682309418430364 41.22628166315539
6 81.01283478908684 -42.43100569056257
7 -35.761897629004125 90.3211794708539
8 -82.99696474576862 -87.6805926636888
9 10.998501960267262 -10.061362249995213
10 -72.05983368308615 -80.72800060828712
11 18.9732268819036 -35.62594270945756
12 -93.06213649797421 -86.94418038258496
13 -92.20964071334798 -23.735632705706536
14 -51.20300146997512 80.67387586746369
15 38.868248546505185 8.922117492452912
16 57.80597606856264 -63.263785996457344
17 99.14782094095969 -99.58238021270134
EOF
